c b=3,c=49
p cnf 12 28
3 -6 0
2 3 -10 0
1 3 -11 0
-3 6 0
2 -3 10 0
2 -3 11 0
2 -5 0
1 2 -9 0
2 -12 0
1 -2 3 10 0
3 -12 0
1 -2 -3 -10 0
-2 -3 12 0
-2 5 0
1 -2 9 0
1 -2 -11 0
1 -4 0
1 -8 0
-1 3 -10 0
2 3 -11 0
-1 -3 10 0
-1 2 9 0
-1 -2 3 11 0
-2 -3 -11 0
-1 -2 -9 0
-1 4 0
-1 8 0
-7 0
